Minimize
obj1:+5 x(1) -2 x(2) -1 x(3) +18 x(4) -17 x(5) -9 x(6) -2 x(7) +4 x(8) +15 x(9) -1 x(10) -3 x(11) +10 x(12) -1 x(13) +15 x(14) -1 x(15) +0 x(16) -1 x(17) -11 x(18) -17 x(19) -18 x(20)
Subject To
c1:+9 x(1) +18 x(2) +7 x(3) +20 x(4) +18 x(5) +2 x(6) +17 x(7) +3 x(8) +7 x(9) +3 x(10) +1 x(11) +6 x(12) +19 x(13) +12 x(14) +1 x(15) +16 x(16) +4 x(17) +19 x(18) +2 x(19) +16 x(20)  <=  97
c2:+14 x(1) +7 x(2) +13 x(3) +16 x(4) +1 x(5) +13 x(6) +17 x(7) +12 x(8) +18 x(9) +16 x(10) +20 x(11) +19 x(12) +11 x(13) +18 x(14) +6 x(15) +18 x(16) +7 x(17) +9 x(18) +17 x(19) +18 x(20)  <=  91
c3:+19 x(1) +5 x(2) +5 x(3) +10 x(4) +6 x(5) +16 x(6) +12 x(7) +2 x(8) +10 x(9) +13 x(10) +20 x(11) +2 x(12) +20 x(13) +1 x(14) +17 x(15) +8 x(16) +7 x(17) +8 x(18) +14 x(19) +2 x(20)  <=  50
c4:+20 x(1) +3 x(2) +12 x(3) +7 x(4) +4 x(5) +14 x(6) +12 x(7) +17 x(8) +13 x(9) +2 x(10) +3 x(11) +6 x(12) +4 x(13) +19 x(14) +7 x(15) +2 x(16) +18 x(17) +10 x(18) +3 x(19) +4 x(20)  <=  50
c5:+14 x(1) +7 x(2) +13 x(3) +2 x(4) +19 x(5) +7 x(6) +6 x(7) +15 x(8) +12 x(9) +2 x(10) +10 x(11) +12 x(12) +3 x(13) +3 x(14) +2 x(15) +15 x(16) +5 x(17) +6 x(18) +18 x(19) +15 x(20)  <=  54
c6:+3 x(1) +5 x(2) +12 x(3) +15 x(4) +2 x(5) +19 x(6) +14 x(7) +19 x(8) +14 x(9) +3 x(10) +14 x(11) +5 x(12) +6 x(13) +17 x(14) +11 x(15) +7 x(16) +7 x(17) +19 x(18) +4 x(19) +14 x(20)  <=  63
c7:+1 x(1) +14 x(2) +9 x(3) +11 x(4) +12 x(5) +11 x(6) +16 x(7) +10 x(8) +1 x(9) +16 x(10) +6 x(11) +13 x(12) +8 x(13) +17 x(14) +8 x(15) +17 x(16) +9 x(17) +10 x(18) +13 x(19) +16 x(20)  <=  51
c8:+13 x(1) +2 x(2) +1 x(3) +4 x(4) +13 x(5) +20 x(6) +9 x(7) +14 x(8) +11 x(9) +2 x(10) +16 x(11) +16 x(12) +9 x(13) +19 x(14) +15 x(15) +8 x(16) +15 x(17) +6 x(18) +11 x(19) +11 x(20)  <=  71
c9:+12 x(1) +6 x(2) +11 x(3) +9 x(4) +14 x(5) +2 x(6) +9 x(7) +18 x(8) +1 x(9) +5 x(10) +12 x(11) +11 x(12) +7 x(13) +3 x(14) +11 x(15) +17 x(16) +3 x(17) +9 x(18) +4 x(19) +9 x(20)  <=  67
c10:+20 x(1) +6 x(2) +9 x(3) +4 x(4) +18 x(5) +5 x(6) +10 x(7) +11 x(8) +17 x(9) +5 x(10) +9 x(11) +14 x(12) +14 x(13) +11 x(14) +17 x(15) +4 x(16) +18 x(17) +15 x(18) +1 x(19) +13 x(20)  <=  77
c11:+15 x(1) +18 x(2) +3 x(3) +16 x(4) +2 x(5) +16 x(6) +6 x(7) +6 x(8) +7 x(9) +3 x(10) +6 x(11) +16 x(12) +2 x(13) +9 x(14) +17 x(15) +3 x(16) +2 x(17) +9 x(18) +16 x(19) +18 x(20)  <=  97
c12:+14 x(1) +9 x(2) +10 x(3) +8 x(4) +17 x(5) +19 x(6) +14 x(7) +20 x(8) +17 x(9) +18 x(10) +16 x(11) +5 x(12) +9 x(13) +4 x(14) +4 x(15) +18 x(16) +10 x(17) +4 x(18) +16 x(19) +14 x(20)  <=  65
c13:+11 x(1) +16 x(2) +10 x(3) +19 x(4) +11 x(5) +16 x(6) +19 x(7) +1 x(8) +5 x(9) +14 x(10) +18 x(11) +13 x(12) +6 x(13) +12 x(14) +3 x(15) +1 x(16) +1 x(17) +18 x(18) +9 x(19) +11 x(20)  <=  67
c14:+6 x(1) +13 x(2) +12 x(3) +1 x(4) +14 x(5) +6 x(6) +19 x(7) +7 x(8) +12 x(9) +15 x(10) +15 x(11) +3 x(12) +7 x(13) +13 x(14) +17 x(15) +14 x(16) +16 x(17) +12 x(18) +2 x(19) +6 x(20)  <=  93
c15:+20 x(1) +16 x(2) +17 x(3) +17 x(4) +5 x(5) +4 x(6) +15 x(7) +20 x(8) +19 x(9) +14 x(10) +9 x(11) +11 x(12) +3 x(13) +5 x(14) +13 x(15) +15 x(16) +15 x(17) +8 x(18) +12 x(19) +15 x(20)  <=  67
c16:+11 x(1) +3 x(2) +15 x(3) +13 x(4) +11 x(5) +17 x(6) +6 x(7) +8 x(8) +1 x(9) +11 x(10) +19 x(11) +17 x(12) +12 x(13) +11 x(14) +1 x(15) +9 x(16) +5 x(17) +5 x(18) +4 x(19) +8 x(20)  <=  57
c17:+1 x(1) +20 x(2) +18 x(3) +11 x(4) +15 x(5) +16 x(6) +14 x(7) +7 x(8) +2 x(9) +7 x(10) +6 x(11) +19 x(12) +6 x(13) +20 x(14) +18 x(15) +8 x(16) +14 x(17) +5 x(18) +15 x(19) +12 x(20)  <=  75
c18:+14 x(1) +17 x(2) +2 x(3) +14 x(4) +20 x(5) +6 x(6) +3 x(7) +3 x(8) +1 x(9) +14 x(10) +11 x(11) +10 x(12) +4 x(13) +10 x(14) +11 x(15) +20 x(16) +12 x(17) +11 x(18) +11 x(19) +18 x(20)  <=  93
c19:+11 x(1) +2 x(2) +5 x(3) +15 x(4) +9 x(5) +5 x(6) +3 x(7) +19 x(8) +14 x(9) +3 x(10) +20 x(11) +6 x(12) +1 x(13) +14 x(14) +11 x(15) +8 x(16) +18 x(17) +9 x(18) +6 x(19) +17 x(20)  <=  69
c20:+2 x(1) +10 x(2) +10 x(3) +2 x(4) +2 x(5) +7 x(6) +4 x(7) +3 x(8) +12 x(9) +3 x(10) +6 x(11) +14 x(12) +6 x(13) +9 x(14) +13 x(15) +9 x(16) +12 x(17) +15 x(18) +19 x(19) +18 x(20)  <=  85
obj2:+16 x(1) -11 x(2) +15 x(3) +9 x(4) +15 x(5) +18 x(6) -15 x(7) -4 x(8) +20 x(9) +6 x(10) +16 x(11) -1 x(12) -20 x(13) +5 x(14) -11 x(15) +1 x(16) +9 x(17) +4 x(18) +4 x(19) -3 x(20)  <=  0
Binaries
x(1) x(2) x(3) x(4) x(5) x(6) x(7) x(8) x(9) x(10) x(11) x(12) x(13) x(14) x(15) x(16) x(17) x(18) x(19) x(20)
End
